NAME
ROWS
 N  OBJ
 G  c1
 G  c2
 G  c3
 G  c4
 G  c5
 G  c6
 G  c7
 G  c8
 G  c9
 G  c10
 G  c11
 G  c12
 G  c13
 G  c14
 G  c15
 G  c16
 G  c17
 G  c18
 G  c19
 G  c20
 G  c21
 G  c22
 G  c23
 G  c24
 G  c25
 G  c26
 G  c27
 G  c28
 G  c29
 G  c30
 G  c31
 G  c32
 G  c33
 G  c34
 G  c35
 G  c36
 G  c37
 G  c38
 G  c39
 G  c40
 G  c41
 G  c42
 G  c43
 G  c44
 G  c45
 G  c46
 G  c47
 G  c48
 G  c49
 G  c50
 G  c51
 G  c52
 G  c53
 G  c54
 G  c55
 G  c56
 G  c57
 G  c58
 G  c59
 G  c60
 G  c61
 G  c62
 G  c63
 G  c64
 G  c65
 G  c66
 G  c67
 G  c68
 G  c69
 G  c70
 G  c71
 G  c72
 G  c73
 G  c74
 G  c75
 G  c76
 G  c77
 G  c78
 G  c79
 G  c80
 G  c81
 G  c82
 G  c83
 G  c84
 G  c85
 G  c86
 G  c87
 G  c88
 G  c89
 G  c90
 G  c91
 G  c92
 G  c93
 G  c94
 G  c95
 G  c96
 G  c97
 G  c98
 G  c99
 G  c100
COLUMNS
    MARKER    'MARKER'                 'INTORG'
    x[1]      c1        1
    x[1]      c5        1
    x[1]      c9        1
    x[1]      c18       1
    x[1]      c22       1
    x[1]      c56       1
    x[1]      c67       1
    x[1]      c70       1
    x[1]      c97       1
    x[1]      OBJ       1
    x[2]      c2        1
    x[2]      c27       1
    x[2]      c28       1
    x[2]      c29       1
    x[2]      c31       1
    x[2]      c51       1
    x[2]      c64       1
    x[2]      c65       1
    x[2]      c78       1
    x[2]      c84       1
    x[2]      OBJ       1
    x[3]      c3        1
    x[3]      c17       1
    x[3]      c28       1
    x[3]      c30       1
    x[3]      c43       1
    x[3]      c51       1
    x[3]      c71       1
    x[3]      c83       1
    x[3]      c93       1
    x[3]      c95       1
    x[3]      c98       1
    x[3]      OBJ       1
    x[4]      c4        1
    x[4]      c14       1
    x[4]      c17       1
    x[4]      c22       1
    x[4]      c36       1
    x[4]      c57       1
    x[4]      c87       1
    x[4]      c92       1
    x[4]      OBJ       1
    x[5]      c1        1
    x[5]      c5        1
    x[5]      c7        1
    x[5]      c8        1
    x[5]      c25       1
    x[5]      c29       1
    x[5]      c36       1
    x[5]      c46       1
    x[5]      c51       1
    x[5]      c58       1
    x[5]      c72       1
    x[5]      c98       1
    x[5]      OBJ       1
    x[6]      c6        1
    x[6]      c33       1
    x[6]      c42       1
    x[6]      c43       1
    x[6]      c44       1
    x[6]      c63       1
    x[6]      c84       1
    x[6]      c89       1
    x[6]      c90       1
    x[6]      c100      1
    x[6]      OBJ       1
    x[7]      c5        1
    x[7]      c7        1
    x[7]      c16       1
    x[7]      c19       1
    x[7]      c31       1
    x[7]      c55       1
    x[7]      c70       1
    x[7]      c74       1
    x[7]      c78       1
    x[7]      c82       1
    x[7]      c88       1
    x[7]      c94       1
    x[7]      OBJ       1
    x[8]      c5        1
    x[8]      c8        1
    x[8]      c52       1
    x[8]      c60       1
    x[8]      c65       1
    x[8]      c66       1
    x[8]      c81       1
    x[8]      c86       1
    x[8]      OBJ       1
    x[9]      c1        1
    x[9]      c9        1
    x[9]      c13       1
    x[9]      c16       1
    x[9]      c36       1
    x[9]      c52       1
    x[9]      c64       1
    x[9]      c66       1
    x[9]      c85       1
    x[9]      c90       1
    x[9]      c96       1
    x[9]      c100      1
    x[9]      OBJ       1
    x[10]     c10       1
    x[10]     c11       1
    x[10]     c18       1
    x[10]     c21       1
    x[10]     c27       1
    x[10]     c52       1
    x[10]     c62       1
    x[10]     c70       1
    x[10]     c78       1
    x[10]     c79       1
    x[10]     c90       1
    x[10]     c95       1
    x[10]     c97       1
    x[10]     OBJ       1
    x[11]     c10       1
    x[11]     c11       1
    x[11]     c16       1
    x[11]     c26       1
    x[11]     c46       1
    x[11]     c48       1
    x[11]     c54       1
    x[11]     c62       1
    x[11]     c67       1
    x[11]     c71       1
    x[11]     c75       1
    x[11]     c99       1
    x[11]     OBJ       1
    x[12]     c12       1
    x[12]     c18       1
    x[12]     c24       1
    x[12]     c25       1
    x[12]     c33       1
    x[12]     c35       1
    x[12]     c51       1
    x[12]     c91       1
    x[12]     OBJ       1
    x[13]     c9        1
    x[13]     c13       1
    x[13]     c37       1
    x[13]     c41       1
    x[13]     c61       1
    x[13]     c72       1
    x[13]     c86       1
    x[13]     c99       1
    x[13]     OBJ       1
    x[14]     c4        1
    x[14]     c14       1
    x[14]     c18       1
    x[14]     c36       1
    x[14]     c37       1
    x[14]     c47       1
    x[14]     c60       1
    x[14]     c61       1
    x[14]     c62       1
    x[14]     c69       1
    x[14]     c77       1
    x[14]     c86       1
    x[14]     c89       1
    x[14]     c98       1
    x[14]     c100      1
    x[14]     OBJ       1
    x[15]     c15       1
    x[15]     c20       1
    x[15]     c22       1
    x[15]     c25       1
    x[15]     c43       1
    x[15]     c47       1
    x[15]     c61       1
    x[15]     c65       1
    x[15]     c76       1
    x[15]     OBJ       1
    x[16]     c7        1
    x[16]     c9        1
    x[16]     c11       1
    x[16]     c16       1
    x[16]     c18       1
    x[16]     c23       1
    x[16]     c42       1
    x[16]     c45       1
    x[16]     c46       1
    x[16]     c53       1
    x[16]     c57       1
    x[16]     c58       1
    x[16]     c62       1
    x[16]     c83       1
    x[16]     c84       1
    x[16]     c89       1
    x[16]     c93       1
    x[16]     c97       1
    x[16]     OBJ       1
    x[17]     c3        1
    x[17]     c4        1
    x[17]     c17       1
    x[17]     c28       1
    x[17]     c41       1
    x[17]     c56       1
    x[17]     c63       1
    x[17]     c64       1
    x[17]     c65       1
    x[17]     c72       1
    x[17]     c75       1
    x[17]     c79       1
    x[17]     c80       1
    x[17]     c89       1
    x[17]     c91       1
    x[17]     OBJ       1
    x[18]     c1        1
    x[18]     c10       1
    x[18]     c12       1
    x[18]     c14       1
    x[18]     c16       1
    x[18]     c18       1
    x[18]     c19       1
    x[18]     c21       1
    x[18]     c34       1
    x[18]     c55       1
    x[18]     c82       1
    x[18]     c84       1
    x[18]     c89       1
    x[18]     OBJ       1
    x[19]     c7        1
    x[19]     c18       1
    x[19]     c19       1
    x[19]     c39       1
    x[19]     c55       1
    x[19]     c60       1
    x[19]     c64       1
    x[19]     c68       1
    x[19]     OBJ       1
    x[20]     c15       1
    x[20]     c20       1
    x[20]     c24       1
    x[20]     c28       1
    x[20]     c51       1
    x[20]     c60       1
    x[20]     c67       1
    x[20]     c79       1
    x[20]     c87       1
    x[20]     c92       1
    x[20]     c93       1
    x[20]     OBJ       1
    x[21]     c10       1
    x[21]     c18       1
    x[21]     c21       1
    x[21]     c25       1
    x[21]     c38       1
    x[21]     c45       1
    x[21]     c47       1
    x[21]     c64       1
    x[21]     c83       1
    x[21]     c85       1
    x[21]     c89       1
    x[21]     OBJ       1
    x[22]     c1        1
    x[22]     c4        1
    x[22]     c15       1
    x[22]     c22       1
    x[22]     c25       1
    x[22]     c44       1
    x[22]     c54       1
    x[22]     c66       1
    x[22]     c84       1
    x[22]     OBJ       1
    x[23]     c16       1
    x[23]     c23       1
    x[23]     c24       1
    x[23]     c32       1
    x[23]     c34       1
    x[23]     c36       1
    x[23]     c43       1
    x[23]     c49       1
    x[23]     c59       1
    x[23]     OBJ       1
    x[24]     c12       1
    x[24]     c20       1
    x[24]     c23       1
    x[24]     c24       1
    x[24]     c26       1
    x[24]     c33       1
    x[24]     c55       1
    x[24]     c60       1
    x[24]     c63       1
    x[24]     c74       1
    x[24]     c81       1
    x[24]     c89       1
    x[24]     c97       1
    x[24]     OBJ       1
    x[25]     c5        1
    x[25]     c12       1
    x[25]     c15       1
    x[25]     c21       1
    x[25]     c22       1
    x[25]     c25       1
    x[25]     c35       1
    x[25]     c56       1
    x[25]     c60       1
    x[25]     c92       1
    x[25]     c94       1
    x[25]     c95       1
    x[25]     OBJ       1
    x[26]     c11       1
    x[26]     c24       1
    x[26]     c26       1
    x[26]     c30       1
    x[26]     c39       1
    x[26]     c56       1
    x[26]     c61       1
    x[26]     c66       1
    x[26]     c78       1
    x[26]     c81       1
    x[26]     c90       1
    x[26]     c95       1
    x[26]     OBJ       1
    x[27]     c2        1
    x[27]     c10       1
    x[27]     c27       1
    x[27]     c28       1
    x[27]     c37       1
    x[27]     c45       1
    x[27]     c69       1
    x[27]     c70       1
    x[27]     c78       1
    x[27]     c83       1
    x[27]     c88       1
    x[27]     c97       1
    x[27]     OBJ       1
    x[28]     c2        1
    x[28]     c3        1
    x[28]     c17       1
    x[28]     c20       1
    x[28]     c27       1
    x[28]     c28       1
    x[28]     c55       1
    x[28]     c59       1
    x[28]     c66       1
    x[28]     c67       1
    x[28]     c75       1
    x[28]     OBJ       1
    x[29]     c2        1
    x[29]     c5        1
    x[29]     c29       1
    x[29]     c30       1
    x[29]     c47       1
    x[29]     c96       1
    x[29]     OBJ       1
    x[30]     c3        1
    x[30]     c26       1
    x[30]     c29       1
    x[30]     c30       1
    x[30]     c54       1
    x[30]     c60       1
    x[30]     c62       1
    x[30]     c74       1
    x[30]     c81       1
    x[30]     c82       1
    x[30]     c93       1
    x[30]     c94       1
    x[30]     OBJ       1
    x[31]     c2        1
    x[31]     c7        1
    x[31]     c31       1
    x[31]     c33       1
    x[31]     c39       1
    x[31]     c82       1
    x[31]     c89       1
    x[31]     c100      1
    x[31]     OBJ       1
    x[32]     c23       1
    x[32]     c32       1
    x[32]     c36       1
    x[32]     c40       1
    x[32]     c53       1
    x[32]     c61       1
    x[32]     c65       1
    x[32]     c93       1
    x[32]     c100      1
    x[32]     OBJ       1
    x[33]     c6        1
    x[33]     c12       1
    x[33]     c24       1
    x[33]     c31       1
    x[33]     c33       1
    x[33]     c35       1
    x[33]     c38       1
    x[33]     c39       1
    x[33]     c50       1
    x[33]     c53       1
    x[33]     c67       1
    x[33]     c70       1
    x[33]     c77       1
    x[33]     c97       1
    x[33]     c100      1
    x[33]     OBJ       1
    x[34]     c18       1
    x[34]     c23       1
    x[34]     c34       1
    x[34]     c44       1
    x[34]     c48       1
    x[34]     c49       1
    x[34]     c51       1
    x[34]     c63       1
    x[34]     c71       1
    x[34]     c72       1
    x[34]     c92       1
    x[34]     c96       1
    x[34]     c98       1
    x[34]     OBJ       1
    x[35]     c12       1
    x[35]     c25       1
    x[35]     c33       1
    x[35]     c35       1
    x[35]     c36       1
    x[35]     c37       1
    x[35]     c48       1
    x[35]     c51       1
    x[35]     c79       1
    x[35]     c88       1
    x[35]     c89       1
    x[35]     c91       1
    x[35]     c99       1
    x[35]     OBJ       1
    x[36]     c4        1
    x[36]     c5        1
    x[36]     c9        1
    x[36]     c14       1
    x[36]     c23       1
    x[36]     c32       1
    x[36]     c35       1
    x[36]     c36       1
    x[36]     c39       1
    x[36]     c45       1
    x[36]     c52       1
    x[36]     c59       1
    x[36]     c61       1
    x[36]     c65       1
    x[36]     c76       1
    x[36]     c90       1
    x[36]     OBJ       1
    x[37]     c13       1
    x[37]     c14       1
    x[37]     c27       1
    x[37]     c35       1
    x[37]     c37       1
    x[37]     c44       1
    x[37]     c66       1
    x[37]     c73       1
    x[37]     c93       1
    x[37]     OBJ       1
    x[38]     c21       1
    x[38]     c33       1
    x[38]     c38       1
    x[38]     c42       1
    x[38]     c55       1
    x[38]     c57       1
    x[38]     OBJ       1
    x[39]     c19       1
    x[39]     c26       1
    x[39]     c31       1
    x[39]     c33       1
    x[39]     c36       1
    x[39]     c39       1
    x[39]     c44       1
    x[39]     c61       1
    x[39]     c68       1
    x[39]     c84       1
    x[39]     c97       1
    x[39]     OBJ       1
    x[40]     c32       1
    x[40]     c40       1
    x[40]     c42       1
    x[40]     c49       1
    x[40]     c50       1
    x[40]     c53       1
    x[40]     c56       1
    x[40]     c57       1
    x[40]     c60       1
    x[40]     c77       1
    x[40]     c86       1
    x[40]     c91       1
    x[40]     c93       1
    x[40]     OBJ       1
    x[41]     c13       1
    x[41]     c17       1
    x[41]     c41       1
    x[41]     c46       1
    x[41]     c51       1
    x[41]     c53       1
    x[41]     c90       1
    x[41]     OBJ       1
    x[42]     c6        1
    x[42]     c16       1
    x[42]     c38       1
    x[42]     c40       1
    x[42]     c42       1
    x[42]     c43       1
    x[42]     c46       1
    x[42]     c52       1
    x[42]     c61       1
    x[42]     c65       1
    x[42]     c73       1
    x[42]     c74       1
    x[42]     c81       1
    x[42]     c92       1
    x[42]     OBJ       1
    x[43]     c3        1
    x[43]     c6        1
    x[43]     c15       1
    x[43]     c23       1
    x[43]     c42       1
    x[43]     c43       1
    x[43]     c59       1
    x[43]     c71       1
    x[43]     c72       1
    x[43]     c77       1
    x[43]     c78       1
    x[43]     c81       1
    x[43]     c97       1
    x[43]     OBJ       1
    x[44]     c6        1
    x[44]     c22       1
    x[44]     c34       1
    x[44]     c37       1
    x[44]     c39       1
    x[44]     c44       1
    x[44]     c54       1
    x[44]     c62       1
    x[44]     c80       1
    x[44]     OBJ       1
    x[45]     c16       1
    x[45]     c21       1
    x[45]     c27       1
    x[45]     c36       1
    x[45]     c45       1
    x[45]     c47       1
    x[45]     c48       1
    x[45]     c88       1
    x[45]     c95       1
    x[45]     OBJ       1
    x[46]     c5        1
    x[46]     c11       1
    x[46]     c16       1
    x[46]     c41       1
    x[46]     c42       1
    x[46]     c46       1
    x[46]     c56       1
    x[46]     c64       1
    x[46]     c75       1
    x[46]     c89       1
    x[46]     c99       1
    x[46]     OBJ       1
    x[47]     c14       1
    x[47]     c15       1
    x[47]     c21       1
    x[47]     c29       1
    x[47]     c45       1
    x[47]     c47       1
    x[47]     c98       1
    x[47]     OBJ       1
    x[48]     c11       1
    x[48]     c34       1
    x[48]     c35       1
    x[48]     c45       1
    x[48]     c48       1
    x[48]     c66       1
    x[48]     c76       1
    x[48]     c79       1
    x[48]     c84       1
    x[48]     c89       1
    x[48]     c96       1
    x[48]     OBJ       1
    x[49]     c23       1
    x[49]     c34       1
    x[49]     c40       1
    x[49]     c49       1
    x[49]     c78       1
    x[49]     c80       1
    x[49]     c81       1
    x[49]     c94       1
    x[49]     c98       1
    x[49]     c100      1
    x[49]     OBJ       1
    x[50]     c33       1
    x[50]     c40       1
    x[50]     c50       1
    x[50]     c59       1
    x[50]     c62       1
    x[50]     c70       1
    x[50]     c72       1
    x[50]     c82       1
    x[50]     c88       1
    x[50]     OBJ       1
    x[51]     c2        1
    x[51]     c3        1
    x[51]     c5        1
    x[51]     c12       1
    x[51]     c20       1
    x[51]     c34       1
    x[51]     c35       1
    x[51]     c41       1
    x[51]     c51       1
    x[51]     c66       1
    x[51]     c68       1
    x[51]     c70       1
    x[51]     c75       1
    x[51]     c81       1
    x[51]     c93       1
    x[51]     c98       1
    x[51]     OBJ       1
    x[52]     c8        1
    x[52]     c9        1
    x[52]     c10       1
    x[52]     c36       1
    x[52]     c42       1
    x[52]     c52       1
    x[52]     c64       1
    x[52]     c68       1
    x[52]     c69       1
    x[52]     c78       1
    x[52]     c85       1
    x[52]     c86       1
    x[52]     c94       1
    x[52]     c98       1
    x[52]     OBJ       1
    x[53]     c16       1
    x[53]     c32       1
    x[53]     c33       1
    x[53]     c40       1
    x[53]     c41       1
    x[53]     c53       1
    x[53]     c77       1
    x[53]     c78       1
    x[53]     c84       1
    x[53]     OBJ       1
    x[54]     c11       1
    x[54]     c22       1
    x[54]     c30       1
    x[54]     c44       1
    x[54]     c54       1
    x[54]     c62       1
    x[54]     c70       1
    x[54]     c81       1
    x[54]     c93       1
    x[54]     OBJ       1
    x[55]     c7        1
    x[55]     c18       1
    x[55]     c19       1
    x[55]     c24       1
    x[55]     c28       1
    x[55]     c38       1
    x[55]     c55       1
    x[55]     c77       1
    x[55]     c96       1
    x[55]     OBJ       1
    x[56]     c1        1
    x[56]     c17       1
    x[56]     c25       1
    x[56]     c26       1
    x[56]     c40       1
    x[56]     c46       1
    x[56]     c56       1
    x[56]     c63       1
    x[56]     c78       1
    x[56]     c93       1
    x[56]     c100      1
    x[56]     OBJ       1
    x[57]     c4        1
    x[57]     c16       1
    x[57]     c38       1
    x[57]     c40       1
    x[57]     c57       1
    x[57]     c60       1
    x[57]     c86       1
    x[57]     c89       1
    x[57]     c94       1
    x[57]     c96       1
    x[57]     OBJ       1
    x[58]     c5        1
    x[58]     c16       1
    x[58]     c58       1
    x[58]     c62       1
    x[58]     c73       1
    x[58]     c85       1
    x[58]     c98       1
    x[58]     OBJ       1
    x[59]     c23       1
    x[59]     c28       1
    x[59]     c36       1
    x[59]     c43       1
    x[59]     c50       1
    x[59]     c59       1
    x[59]     c74       1
    x[59]     c97       1
    x[59]     OBJ       1
    x[60]     c8        1
    x[60]     c14       1
    x[60]     c19       1
    x[60]     c20       1
    x[60]     c24       1
    x[60]     c25       1
    x[60]     c30       1
    x[60]     c40       1
    x[60]     c57       1
    x[60]     c60       1
    x[60]     c72       1
    x[60]     c78       1
    x[60]     OBJ       1
    x[61]     c13       1
    x[61]     c14       1
    x[61]     c15       1
    x[61]     c26       1
    x[61]     c32       1
    x[61]     c36       1
    x[61]     c39       1
    x[61]     c42       1
    x[61]     c61       1
    x[61]     c65       1
    x[61]     c73       1
    x[61]     c80       1
    x[61]     c81       1
    x[61]     c99       1
    x[61]     OBJ       1
    x[62]     c10       1
    x[62]     c11       1
    x[62]     c14       1
    x[62]     c16       1
    x[62]     c30       1
    x[62]     c44       1
    x[62]     c50       1
    x[62]     c54       1
    x[62]     c58       1
    x[62]     c62       1
    x[62]     c63       1
    x[62]     c66       1
    x[62]     c68       1
    x[62]     c92       1
    x[62]     c95       1
    x[62]     c100      1
    x[62]     OBJ       1
    x[63]     c6        1
    x[63]     c17       1
    x[63]     c24       1
    x[63]     c34       1
    x[63]     c56       1
    x[63]     c62       1
    x[63]     c63       1
    x[63]     c69       1
    x[63]     c73       1
    x[63]     c77       1
    x[63]     c87       1
    x[63]     OBJ       1
    x[64]     c2        1
    x[64]     c9        1
    x[64]     c17       1
    x[64]     c19       1
    x[64]     c21       1
    x[64]     c46       1
    x[64]     c52       1
    x[64]     c64       1
    x[64]     c71       1
    x[64]     c84       1
    x[64]     c91       1
    x[64]     OBJ       1
    x[65]     c2        1
    x[65]     c8        1
    x[65]     c15       1
    x[65]     c17       1
    x[65]     c32       1
    x[65]     c36       1
    x[65]     c42       1
    x[65]     c61       1
    x[65]     c65       1
    x[65]     c66       1
    x[65]     c73       1
    x[65]     c81       1
    x[65]     c97       1
    x[65]     OBJ       1
    x[66]     c8        1
    x[66]     c9        1
    x[66]     c22       1
    x[66]     c26       1
    x[66]     c28       1
    x[66]     c37       1
    x[66]     c48       1
    x[66]     c51       1
    x[66]     c62       1
    x[66]     c65       1
    x[66]     c66       1
    x[66]     c74       1
    x[66]     c88       1
    x[66]     OBJ       1
    x[67]     c1        1
    x[67]     c11       1
    x[67]     c20       1
    x[67]     c28       1
    x[67]     c33       1
    x[67]     c67       1
    x[67]     c70       1
    x[67]     c80       1
    x[67]     c81       1
    x[67]     c96       1
    x[67]     OBJ       1
    x[68]     c19       1
    x[68]     c39       1
    x[68]     c51       1
    x[68]     c52       1
    x[68]     c62       1
    x[68]     c68       1
    x[68]     c70       1
    x[68]     c71       1
    x[68]     c81       1
    x[68]     c100      1
    x[68]     OBJ       1
    x[69]     c14       1
    x[69]     c27       1
    x[69]     c52       1
    x[69]     c63       1
    x[69]     c69       1
    x[69]     c75       1
    x[69]     c77       1
    x[69]     c92       1
    x[69]     c93       1
    x[69]     OBJ       1
    x[70]     c1        1
    x[70]     c7        1
    x[70]     c10       1
    x[70]     c27       1
    x[70]     c33       1
    x[70]     c50       1
    x[70]     c51       1
    x[70]     c54       1
    x[70]     c67       1
    x[70]     c68       1
    x[70]     c70       1
    x[70]     c71       1
    x[70]     c82       1
    x[70]     c93       1
    x[70]     c98       1
    x[70]     OBJ       1
    x[71]     c3        1
    x[71]     c11       1
    x[71]     c34       1
    x[71]     c43       1
    x[71]     c64       1
    x[71]     c68       1
    x[71]     c70       1
    x[71]     c71       1
    x[71]     c83       1
    x[71]     c90       1
    x[71]     c95       1
    x[71]     OBJ       1
    x[72]     c5        1
    x[72]     c13       1
    x[72]     c17       1
    x[72]     c34       1
    x[72]     c43       1
    x[72]     c50       1
    x[72]     c60       1
    x[72]     c72       1
    x[72]     c78       1
    x[72]     c84       1
    x[72]     OBJ       1
    x[73]     c37       1
    x[73]     c42       1
    x[73]     c58       1
    x[73]     c61       1
    x[73]     c63       1
    x[73]     c65       1
    x[73]     c73       1
    x[73]     c74       1
    x[73]     c88       1
    x[73]     c95       1
    x[73]     OBJ       1
    x[74]     c7        1
    x[74]     c24       1
    x[74]     c30       1
    x[74]     c42       1
    x[74]     c59       1
    x[74]     c66       1
    x[74]     c73       1
    x[74]     c74       1
    x[74]     c82       1
    x[74]     c94       1
    x[74]     OBJ       1
    x[75]     c11       1
    x[75]     c17       1
    x[75]     c28       1
    x[75]     c46       1
    x[75]     c51       1
    x[75]     c69       1
    x[75]     c75       1
    x[75]     c82       1
    x[75]     OBJ       1
    x[76]     c15       1
    x[76]     c36       1
    x[76]     c48       1
    x[76]     c76       1
    x[76]     c92       1
    x[76]     c100      1
    x[76]     OBJ       1
    x[77]     c14       1
    x[77]     c33       1
    x[77]     c40       1
    x[77]     c43       1
    x[77]     c53       1
    x[77]     c55       1
    x[77]     c63       1
    x[77]     c69       1
    x[77]     c77       1
    x[77]     c86       1
    x[77]     c89       1
    x[77]     c93       1
    x[77]     OBJ       1
    x[78]     c2        1
    x[78]     c7        1
    x[78]     c10       1
    x[78]     c26       1
    x[78]     c27       1
    x[78]     c43       1
    x[78]     c49       1
    x[78]     c52       1
    x[78]     c53       1
    x[78]     c56       1
    x[78]     c60       1
    x[78]     c72       1
    x[78]     c78       1
    x[78]     c83       1
    x[78]     c97       1
    x[78]     OBJ       1
    x[79]     c10       1
    x[79]     c17       1
    x[79]     c20       1
    x[79]     c35       1
    x[79]     c48       1
    x[79]     c79       1
    x[79]     c94       1
    x[79]     OBJ       1
    x[80]     c17       1
    x[80]     c44       1
    x[80]     c49       1
    x[80]     c61       1
    x[80]     c67       1
    x[80]     c80       1
    x[80]     c90       1
    x[80]     OBJ       1
    x[81]     c8        1
    x[81]     c24       1
    x[81]     c26       1
    x[81]     c30       1
    x[81]     c42       1
    x[81]     c43       1
    x[81]     c49       1
    x[81]     c51       1
    x[81]     c54       1
    x[81]     c61       1
    x[81]     c65       1
    x[81]     c67       1
    x[81]     c68       1
    x[81]     c81       1
    x[81]     c83       1
    x[81]     c87       1
    x[81]     c98       1
    x[81]     OBJ       1
    x[82]     c7        1
    x[82]     c18       1
    x[82]     c30       1
    x[82]     c31       1
    x[82]     c50       1
    x[82]     c70       1
    x[82]     c74       1
    x[82]     c75       1
    x[82]     c82       1
    x[82]     c84       1
    x[82]     OBJ       1
    x[83]     c3        1
    x[83]     c16       1
    x[83]     c21       1
    x[83]     c27       1
    x[83]     c71       1
    x[83]     c78       1
    x[83]     c81       1
    x[83]     c83       1
    x[83]     c91       1
    x[83]     c100      1
    x[83]     OBJ       1
    x[84]     c2        1
    x[84]     c6        1
    x[84]     c16       1
    x[84]     c18       1
    x[84]     c22       1
    x[84]     c39       1
    x[84]     c48       1
    x[84]     c53       1
    x[84]     c64       1
    x[84]     c72       1
    x[84]     c82       1
    x[84]     c84       1
    x[84]     c97       1
    x[84]     c100      1
    x[84]     OBJ       1
    x[85]     c9        1
    x[85]     c21       1
    x[85]     c52       1
    x[85]     c58       1
    x[85]     c85       1
    x[85]     c94       1
    x[85]     OBJ       1
    x[86]     c8        1
    x[86]     c13       1
    x[86]     c14       1
    x[86]     c40       1
    x[86]     c52       1
    x[86]     c57       1
    x[86]     c77       1
    x[86]     c86       1
    x[86]     OBJ       1
    x[87]     c4        1
    x[87]     c20       1
    x[87]     c63       1
    x[87]     c81       1
    x[87]     c87       1
    x[87]     c93       1
    x[87]     c99       1
    x[87]     OBJ       1
    x[88]     c7        1
    x[88]     c27       1
    x[88]     c35       1
    x[88]     c45       1
    x[88]     c50       1
    x[88]     c66       1
    x[88]     c73       1
    x[88]     c88       1
    x[88]     OBJ       1
    x[89]     c6        1
    x[89]     c14       1
    x[89]     c16       1
    x[89]     c17       1
    x[89]     c18       1
    x[89]     c21       1
    x[89]     c24       1
    x[89]     c31       1
    x[89]     c35       1
    x[89]     c46       1
    x[89]     c48       1
    x[89]     c57       1
    x[89]     c77       1
    x[89]     c89       1
    x[89]     c95       1
    x[89]     OBJ       1
    x[90]     c6        1
    x[90]     c9        1
    x[90]     c10       1
    x[90]     c26       1
    x[90]     c36       1
    x[90]     c41       1
    x[90]     c71       1
    x[90]     c80       1
    x[90]     c90       1
    x[90]     c99       1
    x[90]     OBJ       1
    x[91]     c12       1
    x[91]     c17       1
    x[91]     c35       1
    x[91]     c40       1
    x[91]     c64       1
    x[91]     c83       1
    x[91]     c91       1
    x[91]     c96       1
    x[91]     c100      1
    x[91]     OBJ       1
    x[92]     c4        1
    x[92]     c20       1
    x[92]     c25       1
    x[92]     c34       1
    x[92]     c42       1
    x[92]     c62       1
    x[92]     c69       1
    x[92]     c76       1
    x[92]     c92       1
    x[92]     c95       1
    x[92]     OBJ       1
    x[93]     c3        1
    x[93]     c16       1
    x[93]     c20       1
    x[93]     c30       1
    x[93]     c32       1
    x[93]     c37       1
    x[93]     c40       1
    x[93]     c51       1
    x[93]     c54       1
    x[93]     c56       1
    x[93]     c69       1
    x[93]     c70       1
    x[93]     c77       1
    x[93]     c87       1
    x[93]     c93       1
    x[93]     OBJ       1
    x[94]     c7        1
    x[94]     c25       1
    x[94]     c30       1
    x[94]     c49       1
    x[94]     c52       1
    x[94]     c57       1
    x[94]     c74       1
    x[94]     c79       1
    x[94]     c85       1
    x[94]     c94       1
    x[94]     OBJ       1
    x[95]     c3        1
    x[95]     c10       1
    x[95]     c25       1
    x[95]     c26       1
    x[95]     c45       1
    x[95]     c62       1
    x[95]     c71       1
    x[95]     c73       1
    x[95]     c89       1
    x[95]     c92       1
    x[95]     c95       1
    x[95]     c98       1
    x[95]     c100      1
    x[95]     OBJ       1
    x[96]     c9        1
    x[96]     c29       1
    x[96]     c34       1
    x[96]     c48       1
    x[96]     c55       1
    x[96]     c57       1
    x[96]     c67       1
    x[96]     c91       1
    x[96]     c96       1
    x[96]     OBJ       1
    x[97]     c1        1
    x[97]     c10       1
    x[97]     c16       1
    x[97]     c24       1
    x[97]     c27       1
    x[97]     c33       1
    x[97]     c39       1
    x[97]     c43       1
    x[97]     c59       1
    x[97]     c65       1
    x[97]     c78       1
    x[97]     c84       1
    x[97]     c97       1
    x[97]     c98       1
    x[97]     c100      1
    x[97]     OBJ       1
    x[98]     c3        1
    x[98]     c5        1
    x[98]     c14       1
    x[98]     c34       1
    x[98]     c47       1
    x[98]     c49       1
    x[98]     c51       1
    x[98]     c52       1
    x[98]     c58       1
    x[98]     c70       1
    x[98]     c81       1
    x[98]     c95       1
    x[98]     c97       1
    x[98]     c98       1
    x[98]     OBJ       1
    x[99]     c11       1
    x[99]     c13       1
    x[99]     c35       1
    x[99]     c46       1
    x[99]     c61       1
    x[99]     c87       1
    x[99]     c90       1
    x[99]     c99       1
    x[99]     OBJ       1
    x[100]    c6        1
    x[100]    c9        1
    x[100]    c14       1
    x[100]    c31       1
    x[100]    c32       1
    x[100]    c33       1
    x[100]    c49       1
    x[100]    c56       1
    x[100]    c62       1
    x[100]    c68       1
    x[100]    c76       1
    x[100]    c83       1
    x[100]    c84       1
    x[100]    c91       1
    x[100]    c95       1
    x[100]    c97       1
    x[100]    c100      1
    x[100]    OBJ       1
    MARKER    'MARKER'                 'INTEND'
RHS
    rhs       c1        1
    rhs       c2        1
    rhs       c3        1
    rhs       c4        1
    rhs       c5        1
    rhs       c6        1
    rhs       c7        1
    rhs       c8        1
    rhs       c9        1
    rhs       c10       1
    rhs       c11       1
    rhs       c12       1
    rhs       c13       1
    rhs       c14       1
    rhs       c15       1
    rhs       c16       1
    rhs       c17       1
    rhs       c18       1
    rhs       c19       1
    rhs       c20       1
    rhs       c21       1
    rhs       c22       1
    rhs       c23       1
    rhs       c24       1
    rhs       c25       1
    rhs       c26       1
    rhs       c27       1
    rhs       c28       1
    rhs       c29       1
    rhs       c30       1
    rhs       c31       1
    rhs       c32       1
    rhs       c33       1
    rhs       c34       1
    rhs       c35       1
    rhs       c36       1
    rhs       c37       1
    rhs       c38       1
    rhs       c39       1
    rhs       c40       1
    rhs       c41       1
    rhs       c42       1
    rhs       c43       1
    rhs       c44       1
    rhs       c45       1
    rhs       c46       1
    rhs       c47       1
    rhs       c48       1
    rhs       c49       1
    rhs       c50       1
    rhs       c51       1
    rhs       c52       1
    rhs       c53       1
    rhs       c54       1
    rhs       c55       1
    rhs       c56       1
    rhs       c57       1
    rhs       c58       1
    rhs       c59       1
    rhs       c60       1
    rhs       c61       1
    rhs       c62       1
    rhs       c63       1
    rhs       c64       1
    rhs       c65       1
    rhs       c66       1
    rhs       c67       1
    rhs       c68       1
    rhs       c69       1
    rhs       c70       1
    rhs       c71       1
    rhs       c72       1
    rhs       c73       1
    rhs       c74       1
    rhs       c75       1
    rhs       c76       1
    rhs       c77       1
    rhs       c78       1
    rhs       c79       1
    rhs       c80       1
    rhs       c81       1
    rhs       c82       1
    rhs       c83       1
    rhs       c84       1
    rhs       c85       1
    rhs       c86       1
    rhs       c87       1
    rhs       c88       1
    rhs       c89       1
    rhs       c90       1
    rhs       c91       1
    rhs       c92       1
    rhs       c93       1
    rhs       c94       1
    rhs       c95       1
    rhs       c96       1
    rhs       c97       1
    rhs       c98       1
    rhs       c99       1
    rhs       c100      1
RANGES
BOUNDS
 BV bounds    x[1]
 BV bounds    x[2]
 BV bounds    x[3]
 BV bounds    x[4]
 BV bounds    x[5]
 BV bounds    x[6]
 BV bounds    x[7]
 BV bounds    x[8]
 BV bounds    x[9]
 BV bounds    x[10]
 BV bounds    x[11]
 BV bounds    x[12]
 BV bounds    x[13]
 BV bounds    x[14]
 BV bounds    x[15]
 BV bounds    x[16]
 BV bounds    x[17]
 BV bounds    x[18]
 BV bounds    x[19]
 BV bounds    x[20]
 BV bounds    x[21]
 BV bounds    x[22]
 BV bounds    x[23]
 BV bounds    x[24]
 BV bounds    x[25]
 BV bounds    x[26]
 BV bounds    x[27]
 BV bounds    x[28]
 BV bounds    x[29]
 BV bounds    x[30]
 BV bounds    x[31]
 BV bounds    x[32]
 BV bounds    x[33]
 BV bounds    x[34]
 BV bounds    x[35]
 BV bounds    x[36]
 BV bounds    x[37]
 BV bounds    x[38]
 BV bounds    x[39]
 BV bounds    x[40]
 BV bounds    x[41]
 BV bounds    x[42]
 BV bounds    x[43]
 BV bounds    x[44]
 BV bounds    x[45]
 BV bounds    x[46]
 BV bounds    x[47]
 BV bounds    x[48]
 BV bounds    x[49]
 BV bounds    x[50]
 BV bounds    x[51]
 BV bounds    x[52]
 BV bounds    x[53]
 BV bounds    x[54]
 BV bounds    x[55]
 BV bounds    x[56]
 BV bounds    x[57]
 BV bounds    x[58]
 BV bounds    x[59]
 BV bounds    x[60]
 BV bounds    x[61]
 BV bounds    x[62]
 BV bounds    x[63]
 BV bounds    x[64]
 BV bounds    x[65]
 BV bounds    x[66]
 BV bounds    x[67]
 BV bounds    x[68]
 BV bounds    x[69]
 BV bounds    x[70]
 BV bounds    x[71]
 BV bounds    x[72]
 BV bounds    x[73]
 BV bounds    x[74]
 BV bounds    x[75]
 BV bounds    x[76]
 BV bounds    x[77]
 BV bounds    x[78]
 BV bounds    x[79]
 BV bounds    x[80]
 BV bounds    x[81]
 BV bounds    x[82]
 BV bounds    x[83]
 BV bounds    x[84]
 BV bounds    x[85]
 BV bounds    x[86]
 BV bounds    x[87]
 BV bounds    x[88]
 BV bounds    x[89]
 BV bounds    x[90]
 BV bounds    x[91]
 BV bounds    x[92]
 BV bounds    x[93]
 BV bounds    x[94]
 BV bounds    x[95]
 BV bounds    x[96]
 BV bounds    x[97]
 BV bounds    x[98]
 BV bounds    x[99]
 BV bounds    x[100]
ENDATA
